<number of tasks>
58

<cycle time>
54

<task times>
1 10
2 53
3 41
4 36
5 35
6 17
7 34
8 23
9 14
10 52
11 33
12 34
13 12
14 52
15 12
16 33
17 44
18 7
19 15
20 13
21 29
22 37
23 43
24 23
25 24
26 9
27 16
28 12
29 26
30 22
31 51
32 47
33 34
34 23
35 12
36 52
37 12
38 33
39 44
40 7
41 15
42 13
43 29
44 37
45 43
46 23
47 24
48 9
49 16
50 12
51 26
52 12
53 52
54 12
55 33
56 44
57 7
58 15

<precedence relations>
1,9
2,25
3,21
3,22
4,10
5,36
6,23
6,24
7,43
8,44
9,11
11,13
11,14
11,15
12,17
13,17
14,17
15,17
16,18
17,20
18,19
19,23
20,21
20,25
21,26
21,44
22,27
23,31
24,31
25,38
26,29
27,30
28,32
28,33
29,31
30,34
31,36
32,45
33,35
34,36
35,43
36,37
36,38
37,39
37,40
37,41
38,52
39,43
40,43
41,42
42,43
43,45
44,45
45,46
45,48
45,49
46,47
46,50
47,51
48,55
49,58
50,58
51,52
52,53
53,54
54,55
54,56
55,57
56,57
57,58

<setup times forward>
1,2:1
1,4:2
1,5:1
1,6:2
1,8:4
1,9:2
1,10:2
1,12:2
1,16:1
1,18:1
1,22:4
1,24:4
1,27:4
1,28:1
1,30:4
1,32:1
1,33:1
1,34:1
2,1:1
2,3:1
2,4:3
2,6:3
2,7:1
2,8:5
2,9:3
2,10:3
2,11:4
2,12:3
2,13:1
2,14:2
2,15:4
2,16:2
2,17:1
2,18:2
2,19:1
2,21:5
2,22:5
2,23:1
2,24:5
2,25:3
2,26:5
2,27:5
2,28:2
2,30:5
2,31:3
2,32:2
2,35:1
2,36:1
2,39:4
2,40:4
2,42:1
2,43:1
2,45:3
2,46:3
2,47:4
2,48:5
2,51:4
3,2:1
3,4:2
3,5:1
3,6:2
3,8:4
3,9:2
3,10:2
3,11:3
3,12:2
3,14:1
3,15:3
3,16:1
3,18:1
3,20:1
3,21:4
3,22:4
3,24:4
3,25:2
3,28:1
3,32:1
3,33:1
4,1:2
4,2:3
4,3:2
4,5:3
4,7:2
4,8:2
4,11:1
4,13:2
4,14:1
4,15:1
4,16:1
4,17:2
4,18:1
4,19:2
4,20:3
4,21:2
4,22:2
4,23:2
4,24:2
4,26:2
4,27:2
4,28:1
4,29:3
4,30:2
4,32:1
4,33:3
4,34:3
4,35:2
4,36:2
4,37:3
4,38:2
4,39:1
4,40:1
4,41:3
4,42:2
4,43:2
4,44:3
4,47:1
4,48:2
4,49:3
4,50:3
4,51:1
4,52:2
4,53:2
4,54:2
4,55:2
4,56:1
4,57:3
4,58:3
5,1:1
5,3:1
5,4:3
5,6:3
5,7:1
5,8:5
5,9:3
5,10:3
5,11:4
5,12:3
5,13:1
5,14:2
5,15:4
5,16:2
5,17:1
5,18:2
5,19:1
5,21:5
5,22:5
5,23:1
5,24:5
5,25:3
5,26:5
5,27:5
5,28:2
5,30:5
5,31:3
5,32:2
5,35:1
5,36:1
6,1:2
6,2:3
6,3:2
6,5:3
6,7:2
6,8:2
6,11:1
6,13:2
6,14:1
6,15:1
6,16:1
6,17:2
6,18:1
6,19:2
6,20:3
6,21:2
6,22:2
6,23:2
6,24:2
6,26:2
6,27:2
6,28:1
6,29:3
6,30:2
6,32:1
6,33:3
6,34:3
6,35:2
6,44:3
7,2:1
7,4:2
7,5:1
7,6:2
7,8:4
7,9:2
7,10:2
7,11:3
7,12:2
7,14:1
7,15:3
7,16:1
7,18:1
7,20:1
7,21:4
7,22:4
7,24:4
7,25:2
7,26:4
7,27:4
7,28:1
7,29:1
7,30:4
7,31:2
7,32:1
7,33:1
7,34:1
7,37:1
7,38:4
7,39:3
7,40:3
7,41:1
7,44:1
8,1:4
8,2:5
8,3:4
8,4:2
8,5:5
8,6:2
8,7:4
8,9:2
8,10:2
8,11:1
8,12:2
8,13:4
8,14:3
8,15:1
8,16:3
8,17:4
8,18:3
8,19:4
8,20:5
8,23:4
8,25:2
8,28:3
8,29:5
8,31:2
8,32:3
8,33:5
8,34:5
8,35:4
8,36:4
8,37:5
8,39:1
8,40:1
8,41:5
8,42:4
8,43:4
8,44:5
9,2:3
9,3:2
9,5:3
9,7:2
9,8:2
9,11:1
9,16:1
9,18:1
9,19:2
9,22:2
9,23:2
9,24:2
9,27:2
9,28:1
9,30:2
9,32:1
9,33:3
9,34:3
9,35:2
10,1:2
10,2:3
10,3:2
10,5:3
10,7:2
10,8:2
10,11:1
10,13:2
10,14:1
10,15:1
10,16:1
10,17:2
10,18:1
10,19:2
10,20:3
10,21:2
10,22:2
10,23:2
10,24:2
10,26:2
10,27:2
10,28:1
10,29:3
10,30:2
10,32:1
10,33:3
10,34:3
10,35:2
10,36:2
10,37:3
10,38:2
10,39:1
10,40:1
10,41:3
10,42:2
10,43:2
10,44:3
10,47:1
10,48:2
10,49:3
10,50:3
10,51:1
10,52:2
10,53:2
10,54:2
10,55:2
10,56:1
10,57:3
10,58:3
11,2:4
11,3:3
11,4:1
11,5:4
11,6:1
11,7:3
11,8:1
11,10:1
11,12:1
11,13:3
11,14:2
11,16:2
11,18:2
11,19:3
11,22:1
11,23:3
11,24:1
11,27:1
11,28:2
11,30:1
11,32:2
11,33:4
11,34:4
11,35:3
12,1:2
12,2:3
12,3:2
12,5:3
12,7:2
12,8:2
12,11:1
12,13:2
12,14:1
12,15:1
12,16:1
12,17:2
12,18:1
12,19:2
12,22:2
12,23:2
12,24:2
12,27:2
12,28:1
12,30:2
12,32:1
12,33:3
12,34:3
12,35:2
13,2:1
13,4:2
13,5:1
13,6:2
13,8:4
13,10:2
13,12:2
13,14:1
13,15:3
13,16:1
13,18:1
13,22:4
13,24:4
13,27:4
13,28:1
13,30:4
13,32:1
13,33:1
13,34:1
14,2:2
14,3:1
14,4:1
14,5:2
14,6:1
14,7:1
14,8:3
14,10:1
14,12:1
14,13:1
14,15:2
14,17:1
14,19:1
14,22:3
14,23:1
14,24:3
14,27:3
14,30:3
14,33:2
14,34:2
14,35:1
15,2:4
15,3:3
15,4:1
15,5:4
15,6:1
15,7:3
15,8:1
15,10:1
15,12:1
15,13:3
15,14:2
15,16:2
15,17:3
15,18:2
15,19:3
15,22:1
15,23:3
15,24:1
15,27:1
15,28:2
15,30:1
15,32:2
15,33:4
15,34:4
15,35:3
16,1:1
16,2:2
16,3:1
16,4:1
16,5:2
16,6:1
16,7:1
16,8:3
16,9:1
16,10:1
16,11:2
16,12:1
16,13:1
16,15:2
16,17:1
16,20:2
16,21:3
16,22:3
16,24:3
16,25:1
16,26:3
16,27:3
16,29:2
16,30:3
16,33:2
16,34:2
16,35:1
16,44:2
17,2:1
17,4:2
17,5:1
17,6:2
17,8:4
17,10:2
17,16:1
17,18:1
17,20:1
17,22:4
17,24:4
17,27:4
17,28:1
17,30:4
17,32:1
17,33:1
17,34:1
18,1:1
18,2:2
18,3:1
18,4:1
18,5:2
18,6:1
18,7:1
18,8:3
18,9:1
18,10:1
18,11:2
18,12:1
18,13:1
18,15:2
18,17:1
18,19:1
18,20:2
18,21:3
18,22:3
18,24:3
18,25:1
18,26:3
18,27:3
18,29:2
18,30:3
18,33:2
18,34:2
18,35:1
18,44:2
19,2:1
19,4:2
19,5:1
19,6:2
19,8:4
19,9:2
19,10:2
19,11:3
19,12:2
19,14:1
19,15:3
19,20:1
19,21:4
19,22:4
19,24:4
19,25:2
19,26:4
19,27:4
19,28:1
19,29:1
19,30:4
19,32:1
19,33:1
19,34:1
19,44:1
20,3:1
20,4:3
20,6:3
20,7:1
20,8:5
20,10:3
20,16:2
20,18:2
20,19:1
20,21:5
20,22:5
20,23:1
20,24:5
20,25:3
20,27:5
20,28:2
20,30:5
20,32:2
20,35:1
21,2:5
21,4:2
21,5:5
21,6:2
21,7:4
21,10:2
21,16:3
21,18:3
21,19:4
21,23:4
21,25:2
21,28:3
21,32:3
21,33:5
21,34:5
21,35:4
21,44:5
22,1:4
22,2:5
22,4:2
22,5:5
22,6:2
22,7:4
22,9:2
22,10:2
22,11:1
22,12:2
22,13:4
22,14:3
22,15:1
22,16:3
22,17:4
22,18:3
22,19:4
22,20:5
22,23:4
22,25:2
22,28:3
22,29:5
22,31:2
22,32:3
22,33:5
22,35:4
22,44:5
23,2:1
23,4:2
23,5:1
23,8:4
23,9:2
23,10:2
23,11:3
23,12:2
23,14:1
23,15:3
23,20:1
23,21:4
23,22:4
23,24:4
23,25:2
23,26:4
23,27:4
23,28:1
23,29:1
23,30:4
23,31:2
23,32:1
23,33:1
23,34:1
23,44:1
24,1:4
24,2:5
24,3:4
24,4:2
24,5:5
24,7:4
24,9:2
24,10:2
24,11:1
24,12:2
24,13:4
24,14:3
24,15:1
24,16:3
24,17:4
24,18:3
24,19:4
24,20:5
24,23:4
24,25:2
24,28:3
24,29:5
24,31:2
24,32:3
24,33:5
24,34:5
24,35:4
24,44:5
25,3:2
25,5:3
25,7:2
25,8:2
25,16:1
25,18:1
25,19:2
25,21:2
25,22:2
25,23:2
25,24:2
25,26:2
25,27:2
25,28:1
25,29:3
25,30:2
25,32:1
25,33:3
25,34:3
25,35:2
25,36:2
25,37:3
25,38:2
25,39:1
25,40:1
25,41:3
25,42:2
25,43:2
25,44:3
25,47:1
25,48:2
25,49:3
25,50:3
25,51:1
26,2:5
26,4:2
26,5:5
26,6:2
26,7:4
26,10:2
26,16:3
26,18:3
26,19:4
26,23:4
26,25:2
26,28:3
26,29:5
26,32:3
26,33:5
26,34:5
26,35:4
26,44:5
27,1:4
27,2:5
27,4:2
27,5:5
27,6:2
27,7:4
27,9:2
27,10:2
27,11:1
27,12:2
27,13:4
27,14:3
27,15:1
27,16:3
27,17:4
27,18:3
27,19:4
27,20:5
27,23:4
27,25:2
27,28:3
27,29:5
27,31:2
27,32:3
27,33:5
27,35:4
27,44:5
28,1:1
28,2:2
28,3:1
28,4:1
28,5:2
28,6:1
28,7:1
28,8:3
28,9:1
28,10:1
28,11:2
28,12:1
28,13:1
28,15:2
28,17:1
28,19:1
28,20:2
28,21:3
28,22:3
28,23:1
28,24:3
28,25:1
28,26:3
28,27:3
28,29:2
28,30:3
28,31:1
28,33:2
28,34:2
28,36:1
28,37:2
28,38:3
28,39:2
28,40:2
28,41:2
28,42:1
28,44:2
29,4:3
29,6:3
29,7:1
29,8:5
29,10:3
29,16:2
29,18:2
29,19:1
29,22:5
29,23:1
29,24:5
29,25:3
29,27:5
29,28:2
29,30:5
29,31:3
29,32:2
29,35:1
30,1:4
30,2:5
30,4:2
30,5:5
30,6:2
30,7:4
30,9:2
30,10:2
30,11:1
30,12:2
30,13:4
30,14:3
30,15:1
30,16:3
30,17:4
30,18:3
30,19:4
30,20:5
30,23:4
30,25:2
30,28:3
30,29:5
30,31:2
30,32:3
30,33:5
30,34:5
30,35:4
30,44:5
31,2:3
31,5:3
31,7:2
31,8:2
31,22:2
31,27:2
31,28:1
31,30:2
31,32:1
31,33:3
31,34:3
31,35:2
31,36:2
31,44:3
32,1:1
32,2:2
32,3:1
32,4:1
32,5:2
32,6:1
32,7:1
32,8:3
32,9:1
32,10:1
32,11:2
32,12:1
32,13:1
32,15:2
32,17:1
32,19:1
32,20:2
32,21:3
32,22:3
32,23:1
32,24:3
32,25:1
32,26:3
32,27:3
32,29:2
32,30:3
32,31:1
32,33:2
32,34:2
32,35:1
32,36:1
32,37:2
32,38:3
32,39:2
32,40:2
32,41:2
32,42:1
32,43:1
32,44:2
32,45:1
33,1:1
33,3:1
33,4:3
33,6:3
33,7:1
33,8:5
33,9:3
33,10:3
33,11:4
33,12:3
33,13:1
33,14:2
33,15:4
33,16:2
33,17:1
33,18:2
33,19:1
33,21:5
33,22:5
33,23:1
33,24:5
33,25:3
33,26:5
33,27:5
33,30:5
33,31:3
33,32:2
33,35:1
33,36:1
33,38:5
33,39:4
33,40:4
33,42:1
34,1:1
34,4:3
34,6:3
34,7:1
34,8:5
34,9:3
34,10:3
34,11:4
34,12:3
34,13:1
34,14:2
34,15:4
34,16:2
34,17:1
34,18:2
34,19:1
34,21:5
34,23:1
34,24:5
34,25:3
34,26:5
34,28:2
34,31:3
34,32:2
34,35:1
34,36:1
35,2:1
35,4:2
35,5:1
35,6:2
35,8:4
35,9:2
35,10:2
35,11:3
35,12:2
35,14:1
35,15:3
35,16:1
35,18:1
35,20:1
35,21:4
35,22:4
35,24:4
35,25:2
35,26:4
35,27:4
35,29:1
35,30:4
35,31:2
35,32:1
35,34:1
35,37:1
35,38:4
35,39:3
35,40:3
35,41:1
35,44:1
36,2:1
36,4:2
36,8:4
36,10:2
36,25:2
36,28:1
36,32:1
36,33:1
36,37:1
36,38:4
36,44:1
37,4:3
37,7:1
37,8:5
37,10:3
37,25:3
37,28:2
37,32:2
37,35:1
37,38:5
37,39:4
37,40:4
38,4:2
38,7:4
38,10:2
38,28:3
38,32:3
38,33:5
38,35:4
38,37:5
38,39:1
38,40:1
38,41:5
38,42:4
38,43:4
38,44:5
38,45:2
38,46:2
38,47:1
38,49:5
38,50:5
38,51:1
39,2:4
39,4:1
39,7:3
39,8:1
39,10:1
39,25:1
39,28:2
39,32:2
39,33:4
39,35:3
39,38:1
39,41:4
39,42:3
39,43:3
39,44:4
40,2:4
40,4:1
40,7:3
40,8:1
40,10:1
40,25:1
40,28:2
40,32:2
40,33:4
40,35:3
40,38:1
40,41:4
40,42:3
40,43:3
40,44:4
41,4:3
41,7:1
41,8:5
41,10:3
41,25:3
41,28:2
41,32:2
41,35:1
41,38:5
41,39:4
41,40:4
41,42:1
42,2:1
42,4:2
42,8:4
42,10:2
42,25:2
42,28:1
42,32:1
42,33:1
42,38:4
42,39:3
42,40:3
42,44:1
43,2:1
43,4:2
43,8:4
43,10:2
43,25:2
43,32:1
43,38:4
43,44:1
43,45:2
44,4:3
44,6:3
44,7:1
44,10:3
44,16:2
44,18:2
44,19:1
44,22:5
44,23:1
44,24:5
44,25:3
44,26:5
44,27:5
44,28:2
44,30:5
44,31:3
44,32:2
44,35:1
44,36:1
44,38:5
44,39:4
44,40:4
44,42:1
44,43:1
44,45:3
45,2:3
45,38:2
45,48:2
45,49:3
46,2:3
46,38:2
46,47:1
46,48:2
46,49:3
46,50:3
47,2:4
47,4:1
47,10:1
47,25:1
47,38:1
47,48:1
47,49:4
47,50:4
48,2:5
48,4:2
48,10:2
48,25:2
48,46:2
48,47:1
48,49:5
48,50:5
48,51:1
48,53:4
48,56:3
49,4:3
49,10:3
49,25:3
49,38:5
49,46:3
49,47:4
49,48:5
49,51:4
49,52:5
49,53:1
49,54:5
49,55:5
49,56:2
50,4:3
50,10:3
50,25:3
50,38:5
50,47:4
50,48:5
50,51:4
50,52:5
50,53:1
50,54:5
50,55:5
50,56:2
51,2:4
51,4:1
51,10:1
51,25:1
51,38:1
51,48:1
51,49:4
51,50:4
51,52:1
52,4:2
52,10:2
52,49:5
52,50:5
52,53:4
53,4:2
53,10:2
53,48:4
53,49:1
53,50:1
53,54:4
54,4:2
54,10:2
54,49:5
54,50:5
54,56:3
55,4:2
55,10:2
55,49:5
55,50:5
55,56:3
55,57:5
56,4:1
56,10:1
56,48:3
56,49:2
56,50:2
56,55:3
56,57:2
57,4:3
57,10:3
58,4:3
58,10:3

<setup times backward>
1,4:2
1,6:2
1,8:4
1,10:2
1,12:2
1,16:1
1,18:1
1,22:4
1,24:4
1,27:4
1,28:1
1,30:4
1,32:1
2,1:1
2,3:1
2,4:3
2,6:3
2,7:1
2,8:5
2,9:3
2,10:3
2,11:4
2,12:3
2,13:1
2,14:2
2,15:4
2,16:2
2,17:1
2,18:2
2,19:1
2,21:5
2,22:5
2,23:1
2,24:5
2,26:5
2,27:5
2,28:2
2,30:5
2,31:3
2,32:2
2,35:1
2,36:1
2,39:4
2,40:4
2,42:1
2,43:1
2,45:3
2,46:3
2,47:4
2,48:5
2,51:4
3,4:2
3,6:2
3,8:4
3,9:2
3,10:2
3,11:3
3,12:2
3,14:1
3,15:3
3,16:1
3,18:1
3,24:4
3,25:2
3,28:1
3,32:1
4,8:2
4,11:1
4,15:1
4,21:2
4,22:2
4,24:2
4,26:2
4,27:2
4,30:2
4,38:2
4,39:1
4,40:1
4,47:1
4,48:2
4,51:1
4,52:2
4,54:2
4,55:2
5,1:1
5,3:1
5,4:3
5,6:3
5,7:1
5,8:5
5,9:3
5,10:3
5,11:4
5,12:3
5,13:1
5,14:2
5,15:4
5,16:2
5,17:1
5,18:2
5,19:1
5,21:5
5,22:5
5,23:1
5,24:5
5,25:3
5,26:5
5,27:5
5,28:2
5,30:5
5,31:3
5,32:2
5,35:1
6,8:2
6,11:1
6,15:1
6,21:2
6,22:2
6,26:2
6,27:2
6,30:2
7,4:2
7,6:2
7,8:4
7,9:2
7,10:2
7,11:3
7,12:2
7,14:1
7,15:3
7,16:1
7,18:1
7,21:4
7,22:4
7,24:4
7,25:2
7,26:4
7,27:4
7,28:1
7,30:4
7,31:2
7,32:1
7,38:4
7,39:3
7,40:3
9,8:2
9,22:2
9,24:2
9,27:2
9,30:2
10,8:2
10,11:1
10,15:1
10,21:2
10,22:2
10,24:2
10,26:2
10,27:2
10,30:2
10,38:2
10,39:1
10,40:1
10,47:1
10,48:2
10,51:1
10,52:2
10,54:2
10,55:2
11,8:1
11,22:1
11,24:1
11,27:1
11,30:1
12,8:2
12,11:1
12,15:1
12,22:2
12,24:2
12,27:2
12,30:2
13,4:2
13,6:2
13,8:4
13,9:2
13,10:2
13,11:3
13,12:2
13,14:1
13,15:3
13,16:1
13,18:1
13,22:4
13,24:4
13,27:4
13,28:1
13,30:4
13,32:1
14,4:1
14,6:1
14,8:3
14,9:1
14,10:1
14,11:2
14,12:1
14,15:2
14,22:3
14,24:3
14,27:3
14,30:3
15,8:1
15,22:1
15,24:1
15,27:1
15,30:1
16,4:1
16,6:1
16,8:3
16,9:1
16,10:1
16,11:2
16,12:1
16,15:2
16,21:3
16,22:3
16,24:3
16,25:1
16,26:3
16,27:3
16,30:3
17,4:2
17,6:2
17,8:4
17,9:2
17,10:2
17,11:3
17,12:2
17,14:1
17,15:3
17,16:1
17,18:1
17,22:4
17,24:4
17,27:4
17,28:1
17,30:4
17,32:1
18,4:1
18,6:1
18,8:3
18,9:1
18,10:1
18,11:2
18,12:1
18,15:2
18,21:3
18,22:3
18,24:3
18,25:1
18,26:3
18,27:3
18,30:3
19,4:2
19,6:2
19,8:4
19,9:2
19,10:2
19,11:3
19,12:2
19,14:1
19,15:3
19,16:1
19,18:1
19,21:4
19,22:4
19,24:4
19,25:2
19,26:4
19,27:4
19,28:1
19,30:4
19,32:1
20,1:1
20,3:1
20,4:3
20,6:3
20,7:1
20,8:5
20,9:3
20,10:3
20,11:4
20,12:3
20,13:1
20,14:2
20,15:4
20,16:2
20,17:1
20,18:2
20,19:1
20,22:5
20,23:1
20,24:5
20,27:5
20,28:2
20,30:5
20,32:2
20,35:1
23,4:2
23,6:2
23,8:4
23,9:2
23,10:2
23,11:3
23,12:2
23,14:1
23,15:3
23,16:1
23,18:1
23,21:4
23,22:4
23,24:4
23,25:2
23,26:4
23,27:4
23,28:1
23,30:4
23,32:1
25,8:2
25,11:1
25,15:1
25,21:2
25,22:2
25,24:2
25,26:2
25,27:2
25,30:2
25,39:1
25,40:1
25,47:1
25,48:2
25,51:1
28,4:1
28,6:1
28,8:3
28,9:1
28,10:1
28,11:2
28,12:1
28,15:2
28,21:3
28,22:3
28,24:3
28,25:1
28,26:3
28,27:3
28,30:3
28,31:1
28,38:3
28,39:2
28,40:2
29,1:1
29,3:1
29,4:3
29,6:3
29,7:1
29,8:5
29,9:3
29,10:3
29,11:4
29,12:3
29,13:1
29,14:2
29,15:4
29,16:2
29,17:1
29,18:2
29,19:1
29,21:5
29,22:5
29,23:1
29,24:5
29,25:3
29,26:5
29,27:5
29,28:2
29,30:5
29,32:2
29,35:1
31,8:2
31,11:1
31,15:1
31,21:2
31,22:2
31,24:2
31,26:2
31,27:2
31,30:2
32,4:1
32,6:1
32,8:3
32,9:1
32,10:1
32,11:2
32,12:1
32,15:2
32,21:3
32,22:3
32,24:3
32,25:1
32,26:3
32,27:3
32,30:3
32,31:1
32,38:3
32,39:2
32,40:2
33,1:1
33,3:1
33,4:3
33,6:3
33,7:1
33,8:5
33,9:3
33,10:3
33,11:4
33,12:3
33,13:1
33,14:2
33,15:4
33,16:2
33,17:1
33,18:2
33,19:1
33,21:5
33,22:5
33,23:1
33,24:5
33,25:3
33,26:5
33,27:5
33,28:2
33,30:5
33,31:3
33,32:2
33,36:1
33,38:5
33,39:4
33,40:4
33,42:1
34,1:1
34,3:1
34,4:3
34,6:3
34,7:1
34,8:5
34,9:3
34,10:3
34,11:4
34,12:3
34,13:1
34,14:2
34,15:4
34,16:2
34,17:1
34,18:2
34,19:1
34,21:5
34,22:5
34,23:1
34,24:5
34,25:3
34,26:5
34,27:5
34,28:2
34,30:5
34,31:3
34,32:2
34,35:1
35,4:2
35,6:2
35,8:4
35,9:2
35,10:2
35,11:3
35,12:2
35,14:1
35,15:3
35,16:1
35,18:1
35,21:4
35,22:4
35,24:4
35,25:2
35,26:4
35,27:4
35,28:1
35,30:4
35,31:2
35,32:1
35,38:4
35,39:3
35,40:3
36,4:2
36,6:2
36,8:4
36,9:2
36,10:2
36,11:3
36,12:2
36,14:1
36,15:3
36,16:1
36,18:1
36,21:4
36,22:4
36,24:4
36,25:2
36,26:4
36,27:4
36,28:1
36,30:4
36,31:2
36,32:1
37,1:1
37,3:1
37,4:3
37,6:3
37,7:1
37,8:5
37,9:3
37,10:3
37,11:4
37,12:3
37,13:1
37,14:2
37,15:4
37,16:2
37,17:1
37,18:2
37,19:1
37,21:5
37,22:5
37,23:1
37,24:5
37,25:3
37,26:5
37,27:5
37,28:2
37,30:5
37,31:3
37,32:2
37,35:1
37,36:1
37,38:5
39,8:1
39,21:1
39,22:1
39,24:1
39,26:1
39,27:1
39,30:1
39,38:1
40,8:1
40,21:1
40,22:1
40,24:1
40,26:1
40,27:1
40,30:1
40,38:1
41,1:1
41,3:1
41,4:3
41,6:3
41,7:1
41,8:5
41,9:3
41,10:3
41,11:4
41,12:3
41,13:1
41,14:2
41,15:4
41,16:2
41,17:1
41,18:2
41,19:1
41,21:5
41,22:5
41,23:1
41,24:5
41,25:3
41,26:5
41,27:5
41,28:2
41,30:5
41,31:3
41,32:2
41,35:1
41,36:1
41,38:5
41,39:4
41,40:4
42,4:2
42,6:2
42,8:4
42,9:2
42,10:2
42,11:3
42,12:2
42,14:1
42,15:3
42,16:1
42,18:1
42,21:4
42,22:4
42,24:4
42,25:2
42,26:4
42,27:4
42,28:1
42,30:4
42,31:2
42,32:1
42,38:4
42,39:3
42,40:3
43,4:2
43,6:2
43,8:4
43,9:2
43,10:2
43,11:3
43,12:2
43,14:1
43,15:3
43,16:1
43,18:1
43,21:4
43,22:4
43,24:4
43,25:2
43,26:4
43,27:4
43,28:1
43,30:4
43,31:2
43,32:1
43,38:4
43,39:3
43,40:3
44,1:1
44,3:1
44,4:3
44,6:3
44,7:1
44,8:5
44,9:3
44,10:3
44,11:4
44,12:3
44,13:1
44,14:2
44,15:4
44,16:2
44,17:1
44,18:2
44,19:1
44,21:5
44,22:5
44,23:1
44,24:5
44,25:3
44,26:5
44,27:5
44,28:2
44,30:5
44,31:3
44,32:2
44,35:1
44,36:1
44,38:5
44,39:4
44,40:4
44,42:1
44,43:1
45,8:2
45,11:1
45,15:1
45,21:2
45,22:2
45,24:2
45,26:2
45,27:2
45,30:2
45,38:2
45,39:1
45,40:1
46,8:2
46,11:1
46,15:1
46,21:2
46,22:2
46,24:2
46,26:2
46,27:2
46,30:2
46,38:2
46,39:1
46,40:1
46,48:2
47,8:1
47,21:1
47,22:1
47,24:1
47,26:1
47,27:1
47,30:1
47,38:1
47,48:1
49,1:1
49,3:1
49,4:3
49,6:3
49,7:1
49,8:5
49,9:3
49,10:3
49,11:4
49,12:3
49,13:1
49,14:2
49,15:4
49,16:2
49,17:1
49,18:2
49,19:1
49,21:5
49,22:5
49,23:1
49,24:5
49,25:3
49,26:5
49,27:5
49,28:2
49,30:5
49,31:3
49,32:2
49,35:1
49,36:1
49,38:5
49,39:4
49,40:4
49,42:1
49,43:1
49,45:3
49,46:3
49,47:4
49,48:5
49,51:4
49,52:5
49,53:1
49,54:5
49,55:5
49,56:2
50,1:1
50,3:1
50,4:3
50,6:3
50,7:1
50,8:5
50,9:3
50,10:3
50,11:4
50,12:3
50,13:1
50,14:2
50,15:4
50,16:2
50,17:1
50,18:2
50,19:1
50,21:5
50,22:5
50,23:1
50,24:5
50,25:3
50,26:5
50,27:5
50,28:2
50,30:5
50,31:3
50,32:2
50,35:1
50,36:1
50,38:5
50,39:4
50,40:4
50,42:1
50,43:1
50,45:3
50,46:3
50,47:4
50,48:5
50,51:4
50,52:5
50,53:1
50,54:5
50,55:5
50,56:2
51,8:1
51,21:1
51,22:1
51,24:1
51,26:1
51,27:1
51,30:1
51,38:1
51,48:1
53,4:2
53,6:2
53,8:4
53,9:2
53,10:2
53,11:3
53,12:2
53,14:1
53,15:3
53,16:1
53,18:1
53,21:4
53,22:4
53,24:4
53,25:2
53,26:4
53,27:4
53,28:1
53,30:4
53,31:2
53,32:1
53,38:4
53,39:3
53,40:3
53,45:2
53,46:2
53,47:3
53,48:4
53,51:3
53,52:4
56,4:1
56,6:1
56,8:3
56,9:1
56,10:1
56,11:2
56,12:1
56,15:2
56,21:3
56,22:3
56,24:3
56,25:1
56,26:3
56,27:3
56,30:3
56,31:1
56,38:3
56,39:2
56,40:2
56,45:1
56,46:1
56,47:2
56,48:3
56,51:2
56,52:3
56,54:3
56,55:3
57,1:1
57,3:1
57,4:3
57,6:3
57,7:1
57,8:5
57,9:3
57,10:3
57,11:4
57,12:3
57,13:1
57,14:2
57,15:4
57,16:2
57,17:1
57,18:2
57,19:1
57,21:5
57,22:5
57,23:1
57,24:5
57,25:3
57,26:5
57,27:5
57,28:2
57,30:5
57,31:3
57,32:2
57,35:1
57,36:1
57,38:5
57,39:4
57,40:4
57,42:1
57,43:1
57,45:3
57,46:3
57,47:4
57,48:5
57,51:4
57,52:5
57,53:1
57,54:5
57,55:5
57,56:2
58,1:1
58,3:1
58,4:3
58,6:3
58,7:1
58,8:5
58,9:3
58,10:3
58,11:4
58,12:3
58,13:1
58,14:2
58,15:4
58,16:2
58,17:1
58,18:2
58,19:1
58,21:5
58,22:5
58,23:1
58,24:5
58,25:3
58,26:5
58,27:5
58,28:2
58,30:5
58,31:3
58,32:2
58,35:1
58,36:1
58,38:5
58,39:4
58,40:4
58,42:1
58,43:1
58,45:3
58,46:3
58,47:4
58,48:5
58,51:4
58,52:5
58,53:1
58,54:5
58,55:5
58,56:2

<end>

<optimal SALBP-1 value>
31


<rand seed>
467321153

<Lower Bounds>
Lm1=29
Lms1=29
Lm2=26
Lm3=26
Lm4=29
Best=29

<Optimal Stations (Iterations: 10)>
38
